NAME : amtsp
TYPE : ATSP
DIMENSION : 11
EDGE_WEIGHT_TYPE : EXPLICIT
EDGE_WEIGHT_FORMAT : FULL_MATRIX
EDGE_WEIGHT_SECTION
100000 -100000 100000 100000 100000 100000 100000 100000 100000 100000 100000 
100000 100000 268 1594 1594 2125 1925 2125 2801 2675 2801 
0 0 100000 469 694 2463 2307 2461 3162 3057 3164 
0 0 469 100000 499 2300 2455 2851 3450 3156 3050 
0 0 694 499 100000 500 702 2388 2851 2455 2300 
0 0 2463 2300 500 100000 466 2200 2388 702 500 
0 0 2307 2455 702 466 100000 466 702 500 702 
0 0 2461 2851 2388 2200 466 100000 500 702 2388 
0 0 3162 3450 2851 2388 702 500 100000 466 2200 
0 0 3057 3156 2455 702 500 702 466 100000 466 
0 0 3164 3050 2300 500 702 2388 2200 466 100000 
